Traveling Salesman Problem/TSP_generados/Aleatorio1621103275_7.tsp
NAME: Aleatorio1621103275_7.tsp
COMMENT: Randomly generated scenario
TYPE: TSP
DIMENSION: 7
EDGE_WEIGHT_TYPE: ATT
NODE_COORD_SECTION
1 15.43 18.01
2 5.3 19.84
3 34.82 43.78
4 36.75 7.03
5 25.33 3.38
6 8.42 9.01
7 8.1 1.59
