Traveling Salesman Problem/TSP_generados/Aleatorio1621103275_7.opt.tour
NAME: Aleatorio1621103275_7.opt.tour
COMMENT: Optimal solution for Aleatorio1621103275_7 (127.35385696946035)
TYPE: TOUR
DIMENSION: 7
TOUR_SECTION
1 3 4 5 7 6 2
-1
EOF
